NAME: toy7
TYPE: TSP
COMMENT: https://www.baeldung.com/cs/minimum-cut-graphs; minimum cut {7}; cut-of-the-phase 6 
DIMENSION: 7
EDGE_WEIGHT_TYPE: EXPLICIT
EDGE_WEIGHT_FORMAT: UPPER_ROW
EDGE_WEIGHT_SECTION
2 2 0 3 0 0
2 0 0 4 0
3 0 0 0
3 6 0
5 3
3
EOF